(declare-fun c () String)
(declare-fun b () String)
(declare-fun d () String)
(declare-fun f () String)
(declare-fun h () String)
(assert (= (str.++ b "gb") (str.++ b "hg")))
(assert (= "egacbc" (str.++ "g" f "bbfg")))
(assert (= (str.++ "a" f "a" c "h" h) (str.++ c "bd" d "fe")))

(check-sat)
